(declare-const a Real)
(declare-const b Real)
(declare-const c Real)
(assert (= (* a b c) 1))
(assert (> a 0))
(assert (> b 0))
(assert (> c 0))
(assert (not (<= (+ (* (/ 17343 4) (pow a 4)) (* (/ 17343 4) (pow b 4)) (* -1 (pow (+ (* 173798 (pow a 2)) (* 225254 (pow b 2))) -1) (pow (+ (* 173798 (pow a 3)) (* 225254 (pow b 3))) 2)) (* -442368 (pow a (pow 3 -1)) (pow b (/ 11 3))) (* -221184 (pow a (/ 10 3)) (pow b (/ 2 3))) (* 241319 b (pow a 3)) (* 786599 a (pow b 3)) (* (/ 52029 2) (pow a 2) (pow b 2))) 0)))
(check-sat)
(get-model)
(exit)